c CNF file generated from BLIF2CNF script.
c Original BLIF file was blif/5xp1.blif
p cnf 92 456
5 -9 0
-6 -9 0
9 -5 6  0
-9 8 0
1 -10 0
-5 -10 0
6 -10 0
7 -10 0
10 -1 5 -6 -7  0
-10 8 0
2 -11 0
-5 -11 0
6 -11 0
7 -11 0
11 -2 5 -6 -7  0
-11 8 0
-1 -12 0
-2 -12 0
5 -12 0
-7 -12 0
12 1 2 -5 7  0
-12 8 0
-1 -13 0
-3 -13 0
5 -13 0
-7 -13 0
13 1 3 -5 7  0
-13 8 0
-1 -14 0
-4 -14 0
5 -14 0
-7 -14 0
14 1 4 -5 7  0
-14 8 0
3 -15 0
4 -15 0
-5 -15 0
6 -15 0
7 -15 0
15 -3 -4 5 -6 -7  0
-15 8 0
-8 9 10 11 12 13 14 15  0
5 -17 0
-6 -17 0
7 -17 0
17 -5 6 -7  0
-17 16 0
-5 -18 0
6 -18 0
-7 -18 0
18 5 -6 7  0
-18 16 0
1 -19 0
2 -19 0
-6 -19 0
7 -19 0
19 -1 -2 6 -7  0
-19 16 0
1 -20 0
3 -20 0
-6 -20 0
7 -20 0
20 -1 -3 6 -7  0
-20 16 0
-1 -21 0
-2 -21 0
6 -21 0
-7 -21 0
21 1 2 -6 7  0
-21 16 0
-1 -22 0
-3 -22 0
6 -22 0
-7 -22 0
22 1 3 -6 7  0
-22 16 0
-1 -23 0
-4 -23 0
6 -23 0
-7 -23 0
23 1 4 -6 7  0
-23 16 0
-1 -24 0
-2 -24 0
-3 -24 0
-5 -24 0
6 -24 0
24 1 2 3 5 -6  0
-24 16 0
-1 -25 0
-2 -25 0
-4 -25 0
-5 -25 0
6 -25 0
25 1 2 4 5 -6  0
-25 16 0
1 -26 0
2 -26 0
3 -26 0
5 -26 0
-6 -26 0
26 -1 -2 -3 -5 6  0
-26 16 0
1 -27 0
2 -27 0
4 -27 0
5 -27 0
-6 -27 0
27 -1 -2 -4 -5 6  0
-27 16 0
-16 17 18 19 20 21 22 23 24 25 26 27  0
1 -29 0
2 -29 0
5 -29 0
7 -29 0
29 -1 -2 -5 -7  0
-29 28 0
1 -30 0
3 -30 0
5 -30 0
7 -30 0
30 -1 -3 -5 -7  0
-30 28 0
1 -31 0
5 -31 0
6 -31 0
7 -31 0
31 -1 -5 -6 -7  0
-31 28 0
2 -32 0
5 -32 0
6 -32 0
7 -32 0
32 -2 -5 -6 -7  0
-32 28 0
-1 -33 0
-5 -33 0
-6 -33 0
7 -33 0
33 1 5 6 -7  0
-33 28 0
-1 -34 0
-3 -34 0
5 -34 0
-7 -34 0
34 1 3 -5 7  0
-34 28 0
-1 -35 0
-4 -35 0
5 -35 0
-7 -35 0
35 1 4 -5 7  0
-35 28 0
1 -36 0
-5 -36 0
6 -36 0
-7 -36 0
36 -1 5 -6 7  0
-36 28 0
-1 -37 0
5 -37 0
-6 -37 0
-7 -37 0
37 1 -5 6 7  0
-37 28 0
-2 -38 0
5 -38 0
-6 -38 0
-7 -38 0
38 2 -5 6 7  0
-38 28 0
-1 -39 0
-2 -39 0
-3 -39 0
-5 -39 0
7 -39 0
39 1 2 3 5 -7  0
-39 28 0
-1 -40 0
-2 -40 0
-4 -40 0
-5 -40 0
7 -40 0
40 1 2 4 5 -7  0
-40 28 0
-2 -41 0
-3 -41 0
-5 -41 0
-6 -41 0
7 -41 0
41 2 3 5 6 -7  0
-41 28 0
1 -42 0
2 -42 0
3 -42 0
-5 -42 0
-7 -42 0
42 -1 -2 -3 5 7  0
-42 28 0
1 -43 0
2 -43 0
4 -43 0
-5 -43 0
-7 -43 0
43 -1 -2 -4 5 7  0
-43 28 0
-3 -44 0
-4 -44 0
5 -44 0
-6 -44 0
-7 -44 0
44 3 4 -5 6 7  0
-44 28 0
-1 -45 0
-2 -45 0
3 -45 0
4 -45 0
5 -45 0
6 -45 0
45 1 2 -3 -4 -5 -6  0
-45 28 0
2 -46 0
3 -46 0
4 -46 0
-5 -46 0
6 -46 0
-7 -46 0
46 -2 -3 -4 5 -6 7  0
-46 28 0
-28 29 30 31 32 33 34 35 36 37 38 39 40 41 42 43 44 45 46  0
1 -48 0
2 -48 0
3 -48 0
6 -48 0
48 -1 -2 -3 -6  0
-48 47 0
-1 -49 0
-2 -49 0
-3 -49 0
6 -49 0
49 1 2 3 -6  0
-49 47 0
1 -50 0
2 -50 0
4 -50 0
6 -50 0
50 -1 -2 -4 -6  0
-50 47 0
-1 -51 0
-2 -51 0
-4 -51 0
6 -51 0
51 1 2 4 -6  0
-51 47 0
1 -52 0
-2 -52 0
-3 -52 0
-6 -52 0
52 -1 2 3 6  0
-52 47 0
1 -53 0
2 -53 0
6 -53 0
7 -53 0
53 -1 -2 -6 -7  0
-53 47 0
1 -54 0
3 -54 0
6 -54 0
7 -54 0
54 -1 -3 -6 -7  0
-54 47 0
-1 -55 0
2 -55 0
-6 -55 0
7 -55 0
55 1 -2 6 -7  0
-55 47 0
-1 -56 0
-2 -56 0
6 -56 0
-7 -56 0
56 1 2 -6 7  0
-56 47 0
-1 -57 0
-3 -57 0
6 -57 0
-7 -57 0
57 1 3 -6 7  0
-57 47 0
-1 -58 0
-4 -58 0
6 -58 0
-7 -58 0
58 1 4 -6 7  0
-58 47 0
1 -59 0
-2 -59 0
-6 -59 0
-7 -59 0
59 -1 2 6 7  0
-59 47 0
-1 -60 0
2 -60 0
3 -60 0
4 -60 0
-6 -60 0
60 1 -2 -3 -4 6  0
-60 47 0
-1 -61 0
3 -61 0
4 -61 0
-6 -61 0
7 -61 0
61 1 -3 -4 6 -7  0
-61 47 0
1 -62 0
-3 -62 0
-4 -62 0
-6 -62 0
-7 -62 0
62 -1 3 4 6 7  0
-62 47 0
-47 48 49 50 51 52 53 54 55 56 57 58 59 60 61 62  0
-2 -64 0
-3 -64 0
7 -64 0
64 2 3 -7  0
-64 63 0
1 -65 0
2 -65 0
3 -65 0
7 -65 0
65 -1 -2 -3 -7  0
-65 63 0
1 -66 0
2 -66 0
4 -66 0
7 -66 0
66 -1 -2 -4 -7  0
-66 63 0
2 -67 0
3 -67 0
4 -67 0
7 -67 0
67 -2 -3 -4 -7  0
-67 63 0
-1 -68 0
-2 -68 0
-4 -68 0
7 -68 0
68 1 2 4 -7  0
-68 63 0
1 -69 0
-2 -69 0
3 -69 0
-7 -69 0
69 -1 2 -3 7  0
-69 63 0
-1 -70 0
2 -70 0
-3 -70 0
-7 -70 0
70 1 -2 3 7  0
-70 63 0
-2 -71 0
3 -71 0
4 -71 0
-7 -71 0
71 2 -3 -4 7  0
-71 63 0
-1 -72 0
2 -72 0
-4 -72 0
-7 -72 0
72 1 -2 4 7  0
-72 63 0
2 -73 0
-3 -73 0
-4 -73 0
-7 -73 0
73 -2 3 4 7  0
-73 63 0
-63 64 65 66 67 68 69 70 71 72 73  0
1 -75 0
-2 -75 0
-3 -75 0
75 -1 2 3  0
-75 74 0
1 -76 0
3 -76 0
4 -76 0
76 -1 -3 -4  0
-76 74 0
-1 -77 0
3 -77 0
-4 -77 0
77 1 -3 4  0
-77 74 0
1 -78 0
-3 -78 0
-4 -78 0
78 -1 3 4  0
-78 74 0
-1 -79 0
2 -79 0
-3 -79 0
4 -79 0
79 1 -2 3 -4  0
-79 74 0
-74 75 76 77 78 79  0
2 -81 0
3 -81 0
81 -2 -3  0
-81 80 0
2 -82 0
-4 -82 0
82 -2 4  0
-82 80 0
-2 -83 0
-3 -83 0
4 -83 0
83 2 3 -4  0
-83 80 0
-80 81 82 83  0
-3 -85 0
4 -85 0
85 3 -4  0
-85 84 0
3 -86 0
-4 -86 0
86 -3 4  0
-86 84 0
-84 85 86  0
-4 -88 0
88 4  0
-88 87 0
-87 88  0
1 -90 0
5 -90 0
6 -90 0
90 -1 -5 -6  0
-90 89 0
5 -91 0
6 -91 0
7 -91 0
91 -5 -6 -7  0
-91 89 0
2 -92 0
3 -92 0
4 -92 0
5 -92 0
6 -92 0
92 -2 -3 -4 -5 -6  0
-92 89 0
-89 90 91 92  0
